solution status: optimal solution found
objective value:                                   53
shell_j_thing.thing.chamber[1].thingy.v13                    1 	(obj:0)
shell_j_thing.thing.dead_bead                       1 	(obj:0)
shell_j_thing.thing.chamber[0].thingy.v12                    1 	(obj:0)
shell_j_thing.thing.chamber[0].thingy.v8                    1 	(obj:0)
shell_j_thing.thing.chamber[0].thingy.v4                    1 	(obj:0)
shell_j_thing.thing.wash                            1 	(obj:0)
shell_j_thing.thing.chamber[0].thingy.v6                    1 	(obj:0)
shell_j_thing.thing.chamber[1].thingy.v12                    1 	(obj:0)
shell_j_thing.thing.elute                           1 	(obj:0)
shell_j_thing.thing.chamber[2].thingy.v12                    1 	(obj:0)
shell_j_thing.thing.chamber[2].thingy.v13                    1 	(obj:0)
shell_j_thing.thing.chamber[0].thingy.v13                    1 	(obj:0)
shell_j_thing.thing.dead_cell                       1 	(obj:0)
shell_j_thing.thing.lysis                           1 	(obj:0)
shell_j_thing.thing.dead_buffer                     1 	(obj:0)
thing.thing.chamber[0].thingy.v6_x                   -6 	(obj:0)
thing.thing.chamber[0].thingy.v6_y                   13 	(obj:0)
thing.thing.chamber[0].thingy.v6_z                   15 	(obj:0)
thing.thing.chamber[0].thingy.v12_z                   17 	(obj:0)
thing.thing.chamber[1].thingy.v13_y                   13 	(obj:0)
thing.thing.chamber[1].thingy.v12_x                   -7 	(obj:0)
thing.thing.chamber[1].thingy.v12_y                   13 	(obj:0)
thing.thing.chamber[1].thingy.v12_z                   19 	(obj:0)
thing.thing.dead_bead_x                            -3 	(obj:0)
thing.thing.chamber[0].thingy.v8_x                   -4 	(obj:0)
thing.thing.elute_x                                -7 	(obj:0)
thing.thing.elute_y                                13 	(obj:0)
thing.thing.elute_z                                13 	(obj:0)
thing.thing.chamber[0].thingy.v8_y                   13 	(obj:0)
thing.thing.chamber[0].thingy.v8_z                   15 	(obj:0)
thing.thing.chamber[2].thingy.v12_x                   -8 	(obj:0)
thing.thing.chamber[2].thingy.v12_y                   13 	(obj:0)
thing.thing.chamber[2].thingy.v12_z                   19 	(obj:0)
thing.thing.dead_bead_y                            13 	(obj:0)
thing.thing.dead_bead_z                            18 	(obj:0)
thing.thing.chamber[2].thingy.v13_x                   -9 	(obj:0)
thing.thing.chamber[2].thingy.v13_y                   13 	(obj:0)
thing.thing.chamber[2].thingy.v13_z                   17 	(obj:0)
thing.thing.chamber[0].thingy.v4_x                   -6 	(obj:0)
thing.thing.chamber[0].thingy.v4_y                   13 	(obj:0)
thing.thing.chamber[0].thingy.v13_x                   -7 	(obj:0)
thing.thing.chamber[0].thingy.v13_y                   13 	(obj:0)
thing.thing.chamber[0].thingy.v13_z                   18 	(obj:0)
thing.thing.chamber[0].thingy.v4_z                   14 	(obj:0)
thing.thing.chamber[1].thingy.v13_z                   16 	(obj:0)
thing.thing.dead_cell_x                            -1 	(obj:0)
thing.thing.dead_cell_y                            13 	(obj:0)
thing.thing.dead_cell_z                            14 	(obj:0)
thing.thing.chamber[1].thingy.v13_x                   -9 	(obj:0)
thing.thing.wash_x                                 -9 	(obj:0)
thing.thing.lysis_x                                -5 	(obj:0)
thing.thing.lysis_y                                13 	(obj:0)
thing.thing.lysis_z                                11 	(obj:0)
thing.thing.wash_y                                 13 	(obj:0)
thing.thing.wash_z                                 14 	(obj:0)
thing.thing.dead_buffer_x                          -1 	(obj:0)
thing.thing.dead_buffer_y                          13 	(obj:0)
thing.thing.dead_buffer_z                          12 	(obj:0)
thing.thing.chamber[0].thingy.v12_x                   -6 	(obj:0)
thing.thing.chamber[0].thingy.v12_y                   13 	(obj:0)
x79                                                 2 	(obj:1)
x80                                                 4 	(obj:1)
x85                                                 2 	(obj:1)
x88                                                 2 	(obj:1)
x93                                                 2 	(obj:1)
x99                                                 1 	(obj:1)
x114                                                1 	(obj:1)
x118                                                1 	(obj:1)
x121                                                2 	(obj:1)
x122                                                4 	(obj:1)
x129                                                1 	(obj:1)
x136                                                1 	(obj:1)
x147                                                2 	(obj:1)
x150                                                2 	(obj:1)
x160                                                1 	(obj:1)
x166                                                2 	(obj:1)
x167                                                4 	(obj:1)
x169                                                2 	(obj:1)
x170                                                4 	(obj:1)
x171                                                2 	(obj:1)
x177                                                1 	(obj:1)
x184                                                1 	(obj:1)
x189                                                2 	(obj:1)
x190                                                1 	(obj:1)
x199                                                2 	(obj:1)
x204                                                2 	(obj:1)
x205                                                1 	(obj:1)
x208                                                1 	(obj:1)
